p edge 100 1485
e 1 3
e 1 8
e 1 9
e 1 10
e 1 11
e 1 12
e 1 16
e 1 18
e 1 19
e 1 20
e 1 22
e 1 24
e 1 25
e 1 28
e 1 29
e 1 35
e 1 36
e 1 39
e 1 41
e 1 42
e 1 48
e 1 50
e 1 51
e 1 52
e 1 57
e 1 60
e 1 68
e 1 72
e 1 79
e 1 84
e 1 95
e 2 5
e 2 8
e 2 10
e 2 13
e 2 15
e 2 22
e 2 23
e 2 26
e 2 29
e 2 31
e 2 34
e 2 42
e 2 49
e 2 58
e 2 59
e 2 60
e 2 61
e 2 62
e 2 64
e 2 67
e 2 75
e 2 76
e 2 80
e 2 82
e 2 85
e 2 87
e 2 89
e 2 90
e 2 94
e 2 100
e 3 4
e 3 5
e 3 9
e 3 14
e 3 15
e 3 17
e 3 19
e 3 30
e 3 31
e 3 40
e 3 41
e 3 42
e 3 43
e 3 45
e 3 46
e 3 47
e 3 49
e 3 56
e 3 63
e 3 69
e 3 71
e 3 76
e 3 84
e 3 86
e 3 92
e 3 93
e 3 94
e 3 95
e 4 5
e 4 11
e 4 14
e 4 15
e 4 18
e 4 21
e 4 24
e 4 27
e 4 29
e 4 34
e 4 38
e 4 41
e 4 42
e 4 50
e 4 51
e 4 52
e 4 55
e 4 56
e 4 58
e 4 61
e 4 64
e 4 65
e 4 69
e 4 77
e 4 78
e 4 83
e 4 91
e 4 94
e 4 95
e 4 100
e 5 7
e 5 10
e 5 16
e 5 18
e 5 20
e 5 21
e 5 25
e 5 27
e 5 29
e 5 31
e 5 32
e 5 47
e 5 48
e 5 56
e 5 57
e 5 58
e 5 59
e 5 61
e 5 64
e 5 66
e 5 73
e 5 75
e 5 76
e 5 77
e 5 85
e 5 89
e 5 90
e 5 94
e 5 96
e 5 98
e 5 99
e 6 15
e 6 16
e 6 17
e 6 19
e 6 23
e 6 27
e 6 31
e 6 35
e 6 39
e 6 46
e 6 49
e 6 51
e 6 52
e 6 65
e 6 78
e 6 79
e 6 82
e 6 84
e 6 86
e 6 88
e 6 90
e 6 94
e 6 96
e 6 99
e 6 100
e 7 9
e 7 15
e 7 18
e 7 26
e 7 27
e 7 28
e 7 30
e 7 34
e 7 36
e 7 38
e 7 43
e 7 47
e 7 49
e 7 59
e 7 62
e 7 63
e 7 64
e 7 66
e 7 67
e 7 68
e 7 69
e 7 71
e 7 72
e 7 80
e 7 84
e 7 85
e 7 86
e 7 91
e 7 92
e 7 94
e 7 95
e 7 96
e 8 12
e 8 15
e 8 20
e 8 22
e 8 26
e 8 27
e 8 28
e 8 32
e 8 34
e 8 37
e 8 43
e 8 48
e 8 49
e 8 50
e 8 51
e 8 54
e 8 56
e 8 59
e 8 60
e 8 61
e 8 64
e 8 79
e 8 84
e 8 85
e 8 87
e 8 88
e 8 94
e 8 97
e 9 12
e 9 27
e 9 31
e 9 36
e 9 47
e 9 53
e 9 55
e 9 57
e 9 58
e 9 59
e 9 60
e 9 64
e 9 65
e 9 68
e 9 70
e 9 72
e 9 81
e 9 82
e 9 83
e 9 84
e 9 91
e 9 92
e 9 93
e 9 96
e 9 99
e 10 12
e 10 16
e 10 19
e 10 22
e 10 26
e 10 31
e 10 32
e 10 34
e 10 38
e 10 41
e 10 42
e 10 43
e 10 44
e 10 46
e 10 48
e 10 49
e 10 51
e 10 61
e 10 66
e 10 70
e 10 74
e 10 75
e 10 81
e 10 85
e 10 86
e 10 87
e 10 90
e 10 94
e 10 100
e 11 17
e 11 19
e 11 21
e 11 23
e 11 31
e 11 36
e 11 40
e 11 43
e 11 44
e 11 45
e 11 46
e 11 48
e 11 51
e 11 56
e 11 64
e 11 66
e 11 71
e 11 73
e 11 76
e 11 77
e 11 78
e 11 84
e 11 90
e 11 92
e 11 93
e 11 94
e 11 98
e 12 21
e 12 26
e 12 31
e 12 32
e 12 34
e 12 35
e 12 36
e 12 44
e 12 46
e 12 47
e 12 48
e 12 49
e 12 51
e 12 52
e 12 53
e 12 55
e 12 56
e 12 58
e 12 60
e 12 62
e 12 66
e 12 68
e 12 69
e 12 76
e 12 77
e 12 78
e 12 82
e 12 83
e 12 86
e 12 87
e 12 88
e 12 91
e 12 94
e 12 96
e 12 98
e 12 99
e 13 18
e 13 21
e 13 22
e 13 40
e 13 42
e 13 45
e 13 47
e 13 50
e 13 53
e 13 54
e 13 55
e 13 57
e 13 58
e 13 66
e 13 71
e 13 73
e 13 75
e 13 80
e 13 85
e 13 88
e 13 97
e 13 99
e 14 19
e 14 22
e 14 24
e 14 27
e 14 39
e 14 41
e 14 43
e 14 49
e 14 53
e 14 55
e 14 60
e 14 61
e 14 64
e 14 72
e 14 76
e 14 77
e 14 78
e 14 87
e 14 89
e 14 91
e 14 93
e 14 94
e 15 17
e 15 18
e 15 21
e 15 26
e 15 28
e 15 29
e 15 39
e 15 44
e 15 45
e 15 50
e 15 51
e 15 53
e 15 55
e 15 57
e 15 59
e 15 67
e 15 69
e 15 71
e 15 76
e 15 82
e 15 83
e 15 93
e 15 94
e 15 95
e 15 97
e 15 98
e 15 99
e 16 17
e 16 18
e 16 21
e 16 23
e 16 28
e 16 33
e 16 40
e 16 48
e 16 55
e 16 61
e 16 67
e 16 71
e 16 74
e 16 78
e 16 84
e 16 91
e 16 94
e 16 100
e 17 20
e 17 21
e 17 25
e 17 27
e 17 28
e 17 30
e 17 31
e 17 32
e 17 33
e 17 34
e 17 37
e 17 39
e 17 42
e 17 43
e 17 46
e 17 53
e 17 58
e 17 59
e 17 61
e 17 64
e 17 67
e 17 71
e 17 72
e 17 83
e 17 86
e 17 89
e 17 90
e 17 91
e 17 95
e 17 99
e 18 23
e 18 30
e 18 34
e 18 40
e 18 41
e 18 46
e 18 52
e 18 56
e 18 63
e 18 74
e 18 76
e 18 78
e 18 81
e 18 88
e 18 92
e 18 95
e 18 96
e 18 100
e 19 23
e 19 26
e 19 27
e 19 28
e 19 40
e 19 52
e 19 55
e 19 61
e 19 62
e 19 80
e 19 82
e 19 85
e 19 88
e 19 89
e 19 93
e 19 94
e 19 95
e 20 21
e 20 22
e 20 23
e 20 27
e 20 29
e 20 30
e 20 32
e 20 33
e 20 35
e 20 41
e 20 44
e 20 46
e 20 48
e 20 54
e 20 59
e 20 60
e 20 65
e 20 66
e 20 80
e 20 81
e 20 83
e 20 89
e 20 90
e 20 95
e 20 96
e 21 26
e 21 27
e 21 29
e 21 31
e 21 39
e 21 40
e 21 41
e 21 42
e 21 47
e 21 50
e 21 51
e 21 56
e 21 58
e 21 62
e 21 63
e 21 64
e 21 74
e 21 78
e 21 80
e 21 84
e 21 86
e 21 91
e 21 95
e 22 26
e 22 29
e 22 31
e 22 32
e 22 35
e 22 39
e 22 40
e 22 42
e 22 52
e 22 54
e 22 55
e 22 56
e 22 63
e 22 64
e 22 65
e 22 69
e 22 72
e 22 74
e 22 81
e 22 82
e 22 85
e 22 87
e 22 88
e 22 89
e 22 90
e 22 93
e 22 94
e 22 97
e 22 98
e 22 99
e 23 25
e 23 29
e 23 30
e 23 39
e 23 43
e 23 44
e 23 46
e 23 47
e 23 50
e 23 52
e 23 54
e 23 55
e 23 58
e 23 60
e 23 61
e 23 63
e 23 65
e 23 69
e 23 71
e 23 82
e 23 83
e 23 86
e 23 89
e 23 91
e 23 92
e 23 94
e 23 96
e 24 27
e 24 28
e 24 30
e 24 34
e 24 35
e 24 39
e 24 41
e 24 42
e 24 43
e 24 46
e 24 54
e 24 56
e 24 58
e 24 59
e 24 60
e 24 72
e 24 73
e 24 74
e 24 77
e 24 80
e 24 85
e 24 88
e 24 89
e 24 90
e 24 92
e 24 93
e 24 99
e 25 27
e 25 35
e 25 47
e 25 54
e 25 55
e 25 58
e 25 60
e 25 63
e 25 72
e 25 74
e 25 76
e 25 80
e 25 82
e 25 85
e 25 86
e 25 91
e 25 95
e 26 31
e 26 33
e 26 42
e 26 45
e 26 51
e 26 53
e 26 56
e 26 67
e 26 69
e 26 77
e 26 79
e 26 80
e 26 82
e 26 83
e 26 91
e 26 93
e 26 95
e 27 30
e 27 32
e 27 38
e 27 40
e 27 44
e 27 48
e 27 49
e 27 51
e 27 52
e 27 55
e 27 61
e 27 67
e 27 74
e 27 80
e 27 81
e 27 90
e 27 91
e 27 92
e 27 96
e 27 97
e 28 29
e 28 30
e 28 36
e 28 40
e 28 42
e 28 43
e 28 45
e 28 49
e 28 50
e 28 53
e 28 56
e 28 58
e 28 61
e 28 62
e 28 63
e 28 65
e 28 66
e 28 70
e 28 71
e 28 79
e 28 81
e 28 82
e 28 86
e 28 92
e 28 94
e 28 96
e 28 98
e 28 99
e 28 100
e 29 31
e 29 33
e 29 35
e 29 36
e 29 38
e 29 48
e 29 52
e 29 54
e 29 57
e 29 69
e 29 70
e 29 71
e 29 81
e 29 83
e 29 87
e 29 95
e 29 96
e 29 98
e 29 99
e 30 31
e 30 35
e 30 37
e 30 38
e 30 44
e 30 46
e 30 47
e 30 53
e 30 57
e 30 59
e 30 60
e 30 63
e 30 66
e 30 73
e 30 76
e 30 79
e 30 81
e 30 84
e 30 86
e 30 88
e 30 91
e 30 97
e 31 32
e 31 39
e 31 42
e 31 43
e 31 44
e 31 46
e 31 49
e 31 59
e 31 63
e 31 74
e 31 81
e 31 82
e 31 85
e 32 34
e 32 39
e 32 46
e 32 49
e 32 50
e 32 51
e 32 57
e 32 64
e 32 66
e 32 68
e 32 69
e 32 70
e 32 72
e 32 76
e 32 79
e 32 81
e 32 83
e 32 85
e 32 90
e 32 92
e 32 95
e 32 96
e 32 97
e 32 100
e 33 36
e 33 46
e 33 50
e 33 51
e 33 66
e 33 68
e 33 69
e 33 70
e 33 82
e 33 84
e 33 86
e 33 89
e 33 90
e 33 93
e 33 94
e 33 97
e 33 99
e 34 35
e 34 39
e 34 49
e 34 54
e 34 56
e 34 66
e 34 68
e 34 69
e 34 74
e 34 78
e 34 82
e 34 83
e 34 85
e 34 98
e 34 99
e 34 100
e 35 41
e 35 44
e 35 47
e 35 48
e 35 49
e 35 54
e 35 59
e 35 61
e 35 64
e 35 65
e 35 72
e 35 78
e 35 79
e 35 80
e 35 85
e 35 92
e 35 96
e 36 38
e 36 39
e 36 45
e 36 48
e 36 50
e 36 63
e 36 67
e 36 70
e 36 80
e 36 82
e 36 85
e 36 86
e 36 89
e 36 92
e 36 94
e 36 98
e 36 99
e 36 100
e 37 42
e 37 47
e 37 48
e 37 50
e 37 54
e 37 55
e 37 58
e 37 61
e 37 64
e 37 69
e 37 78
e 37 79
e 37 80
e 37 83
e 37 87
e 37 92
e 37 98
e 37 100
e 38 39
e 38 40
e 38 41
e 38 42
e 38 43
e 38 46
e 38 55
e 38 57
e 38 58
e 38 61
e 38 63
e 38 65
e 38 68
e 38 70
e 38 72
e 38 73
e 38 77
e 38 82
e 38 84
e 38 86
e 38 89
e 38 95
e 38 100
e 39 41
e 39 43
e 39 44
e 39 47
e 39 48
e 39 51
e 39 56
e 39 57
e 39 58
e 39 59
e 39 60
e 39 61
e 39 64
e 39 65
e 39 73
e 39 76
e 39 89
e 39 91
e 39 92
e 39 95
e 39 96
e 39 99
e 40 43
e 40 45
e 40 48
e 40 56
e 40 58
e 40 64
e 40 68
e 40 71
e 40 74
e 40 75
e 40 81
e 40 82
e 40 90
e 40 96
e 40 99
e 41 44
e 41 46
e 41 47
e 41 57
e 41 60
e 41 62
e 41 65
e 41 69
e 41 73
e 41 75
e 41 76
e 41 82
e 41 86
e 41 89
e 41 91
e 41 92
e 41 99
e 42 50
e 42 51
e 42 52
e 42 54
e 42 55
e 42 56
e 42 57
e 42 58
e 42 59
e 42 63
e 42 66
e 42 67
e 42 68
e 42 70
e 42 76
e 42 77
e 42 81
e 42 91
e 42 92
e 42 98
e 42 100
e 43 45
e 43 46
e 43 51
e 43 59
e 43 61
e 43 66
e 43 68
e 43 69
e 43 74
e 43 75
e 43 81
e 43 82
e 43 88
e 43 91
e 43 92
e 43 93
e 43 94
e 43 95
e 43 97
e 43 98
e 44 48
e 44 53
e 44 59
e 44 62
e 44 64
e 44 66
e 44 68
e 44 69
e 44 78
e 44 79
e 44 84
e 44 98
e 44 100
e 45 46
e 45 50
e 45 56
e 45 57
e 45 61
e 45 62
e 45 63
e 45 68
e 45 69
e 45 72
e 45 73
e 45 75
e 45 76
e 45 77
e 45 78
e 45 81
e 45 82
e 45 83
e 45 86
e 45 89
e 45 91
e 45 94
e 45 95
e 45 97
e 45 98
e 46 50
e 46 56
e 46 58
e 46 59
e 46 60
e 46 65
e 46 67
e 46 70
e 46 73
e 46 79
e 46 83
e 46 87
e 46 88
e 46 94
e 46 97
e 47 55
e 47 56
e 47 59
e 47 60
e 47 61
e 47 63
e 47 71
e 47 77
e 47 80
e 47 82
e 47 88
e 47 94
e 47 96
e 47 98
e 48 54
e 48 55
e 48 63
e 48 64
e 48 67
e 48 74
e 48 75
e 48 77
e 48 79
e 48 82
e 48 85
e 48 86
e 48 91
e 48 93
e 49 50
e 49 51
e 49 56
e 49 57
e 49 58
e 49 59
e 49 61
e 49 62
e 49 69
e 49 71
e 49 74
e 49 75
e 49 76
e 49 78
e 49 80
e 49 84
e 49 90
e 49 99
e 50 54
e 50 65
e 50 73
e 50 85
e 50 90
e 50 97
e 51 62
e 51 63
e 51 65
e 51 69
e 51 71
e 51 73
e 51 77
e 51 78
e 51 81
e 51 83
e 51 84
e 51 85
e 51 86
e 51 88
e 51 90
e 51 92
e 51 93
e 51 95
e 51 97
e 51 98
e 52 53
e 52 54
e 52 56
e 52 58
e 52 62
e 52 69
e 52 70
e 52 86
e 52 87
e 52 89
e 52 96
e 53 55
e 53 58
e 53 59
e 53 65
e 53 69
e 53 80
e 53 81
e 53 82
e 53 84
e 53 87
e 53 90
e 53 91
e 53 97
e 54 58
e 54 59
e 54 61
e 54 62
e 54 63
e 54 72
e 54 74
e 54 80
e 54 82
e 54 91
e 54 92
e 54 94
e 54 95
e 54 97
e 54 98
e 54 99
e 55 61
e 55 63
e 55 64
e 55 69
e 55 70
e 55 76
e 55 78
e 55 80
e 55 85
e 55 87
e 55 88
e 55 91
e 55 93
e 55 95
e 55 99
e 56 65
e 56 67
e 56 73
e 56 75
e 56 77
e 56 82
e 56 83
e 56 84
e 56 86
e 56 89
e 56 91
e 56 92
e 56 95
e 56 96
e 56 100
e 57 59
e 57 60
e 57 61
e 57 66
e 57 67
e 57 71
e 57 74
e 57 80
e 57 84
e 57 86
e 57 94
e 57 96
e 57 100
e 58 59
e 58 61
e 58 66
e 58 67
e 58 78
e 58 81
e 58 83
e 58 86
e 58 90
e 58 91
e 58 94
e 58 97
e 58 98
e 59 63
e 59 64
e 59 67
e 59 68
e 59 72
e 59 79
e 59 86
e 59 92
e 59 98
e 59 99
e 60 64
e 60 65
e 60 66
e 60 68
e 60 71
e 60 74
e 60 75
e 60 76
e 60 77
e 60 81
e 60 82
e 60 85
e 60 86
e 60 87
e 60 89
e 60 90
e 60 92
e 61 68
e 61 72
e 61 74
e 61 82
e 61 86
e 61 90
e 61 99
e 62 64
e 62 69
e 62 78
e 62 82
e 62 83
e 62 84
e 62 85
e 62 89
e 62 90
e 62 91
e 62 95
e 62 96
e 63 64
e 63 69
e 63 73
e 63 78
e 63 86
e 63 87
e 63 95
e 63 97
e 63 98
e 64 66
e 64 69
e 64 75
e 64 78
e 64 80
e 64 81
e 64 82
e 64 83
e 64 88
e 64 89
e 64 90
e 64 91
e 64 95
e 64 100
e 65 76
e 65 80
e 65 83
e 65 84
e 65 87
e 65 89
e 65 90
e 65 92
e 65 93
e 65 94
e 65 95
e 65 96
e 65 99
e 66 69
e 66 71
e 66 73
e 66 75
e 66 81
e 66 82
e 66 86
e 66 91
e 66 95
e 67 68
e 67 70
e 67 71
e 67 79
e 67 81
e 67 82
e 67 85
e 67 88
e 67 89
e 67 92
e 67 95
e 67 96
e 67 99
e 68 71
e 68 75
e 68 76
e 68 77
e 68 78
e 68 80
e 68 82
e 68 93
e 68 96
e 68 99
e 69 73
e 69 77
e 69 82
e 69 91
e 69 92
e 69 97
e 70 74
e 70 76
e 70 84
e 70 86
e 70 95
e 70 98
e 70 99
e 71 72
e 71 73
e 71 77
e 71 78
e 71 79
e 71 80
e 71 81
e 71 83
e 71 84
e 71 90
e 71 93
e 72 75
e 72 76
e 72 79
e 72 80
e 72 84
e 72 87
e 72 90
e 72 91
e 73 76
e 73 77
e 73 78
e 73 81
e 73 84
e 73 87
e 73 95
e 73 97
e 74 75
e 74 82
e 74 83
e 74 85
e 74 89
e 74 91
e 74 94
e 74 96
e 75 77
e 75 86
e 75 92
e 75 93
e 75 94
e 75 95
e 75 100
e 76 78
e 76 83
e 76 86
e 76 88
e 76 89
e 76 92
e 76 94
e 76 96
e 76 97
e 77 79
e 77 85
e 77 86
e 77 90
e 77 92
e 77 99
e 78 80
e 78 81
e 78 87
e 78 89
e 78 91
e 78 92
e 78 94
e 78 97
e 79 84
e 79 86
e 79 87
e 79 90
e 79 100
e 80 85
e 80 86
e 80 88
e 80 89
e 80 91
e 81 82
e 81 84
e 81 86
e 81 89
e 81 94
e 81 95
e 81 96
e 81 97
e 81 98
e 82 84
e 82 88
e 82 90
e 82 91
e 82 93
e 82 97
e 82 100
e 83 88
e 83 92
e 83 94
e 83 97
e 83 98
e 84 86
e 84 87
e 84 88
e 84 89
e 84 97
e 84 99
e 85 91
e 85 92
e 85 98
e 85 100
e 86 87
e 86 93
e 86 96
e 87 88
e 87 92
e 87 94
e 87 95
e 88 90
e 88 92
e 89 92
e 89 93
e 89 99
e 90 91
e 90 94
e 90 97
e 91 93
e 91 96
e 91 100
e 92 93
e 92 97
e 92 100
e 93 96
e 94 96
e 94 99
e 94 100
e 96 97
e 96 99
e 98 100
